c Standarized MaxSat Instance
c{
c "sha1sum": "17d7e678515889c6ffba99731587e14750ce8e28",
c "nvars": 280,
c "ncls": 1309,
c "total_lits": 2324,
c "nhards": 364,
c "nhard_nlits": 812,
c "nhard_len_stats":
c    { "min": 2,
c      "max": 5,
c      "ave": 2.2308,
c      "stddev": 0.7994 },
c "nsofts": 945,
c "nsoft_nlits": 1512,
c "nsoft_len_stats":
c    { "min": 1,
c      "max": 4,
c      "ave": 1.6000,
c      "stddev": 0.7409 },
c "nsoft_wts": 1,
c "soft_wt_stats":
c    { "min": 1,
c      "max": 1,
c      "ave": 1.0000,
c      "stddev": 0.0000 }
c}
c------------------------------------------------------------
c Original instance: kbtree_wcnf.s-suppc_w9-s7-h3-d5/90/kbtree9_7_3_5_90_3.wcsp
c Format: Partial Max-SAT (wcnf)
c Encoding: [SEQUENTIAL] + Support (less SUM 2^#literals direction)
h 1 2 3 4 5 0
h 6 7 8 9 10 0
h 11 12 13 14 15 0
h 16 17 18 19 20 0
h 21 22 23 24 25 0
h 26 27 28 29 30 0
h 31 32 33 34 35 0
h 36 37 38 39 40 0
h 41 42 43 44 45 0
h 46 47 48 49 50 0
h 51 52 53 54 55 0
h 56 57 58 59 60 0
h 61 62 63 64 65 0
h 66 67 68 69 70 0
h 71 72 73 74 75 0
h 76 77 78 79 80 0
h 81 82 83 84 85 0
h 86 87 88 89 90 0
h 91 92 93 94 95 0
h 96 97 98 99 100 0
h 101 102 103 104 105 0
h 106 107 108 109 110 0
h 111 112 113 114 115 0
h 116 117 118 119 120 0
h 121 122 123 124 125 0
h 126 127 128 129 130 0
h 131 132 133 134 135 0
h 136 137 138 139 140 0
h -1 -142 0
h -2 142 0
h -2 -143 0
h -3 143 0
h -3 -144 0
h -4 144 0
h -4 -145 0
h -5 145 0
h -6 -147 0
h -7 147 0
h -7 -148 0
h -8 148 0
h -8 -149 0
h -9 149 0
h -9 -150 0
h -10 150 0
h -11 -152 0
h -12 152 0
h -12 -153 0
h -13 153 0
h -13 -154 0
h -14 154 0
h -14 -155 0
h -15 155 0
h -16 -157 0
h -17 157 0
h -17 -158 0
h -18 158 0
h -18 -159 0
h -19 159 0
h -19 -160 0
h -20 160 0
h -21 -162 0
h -22 162 0
h -22 -163 0
h -23 163 0
h -23 -164 0
h -24 164 0
h -24 -165 0
h -25 165 0
h -26 -167 0
h -27 167 0
h -27 -168 0
h -28 168 0
h -28 -169 0
h -29 169 0
h -29 -170 0
h -30 170 0
h -31 -172 0
h -32 172 0
h -32 -173 0
h -33 173 0
h -33 -174 0
h -34 174 0
h -34 -175 0
h -35 175 0
h -36 -177 0
h -37 177 0
h -37 -178 0
h -38 178 0
h -38 -179 0
h -39 179 0
h -39 -180 0
h -40 180 0
h -41 -182 0
h -42 182 0
h -42 -183 0
h -43 183 0
h -43 -184 0
h -44 184 0
h -44 -185 0
h -45 185 0
h -46 -187 0
h -47 187 0
h -47 -188 0
h -48 188 0
h -48 -189 0
h -49 189 0
h -49 -190 0
h -50 190 0
h -51 -192 0
h -52 192 0
h -52 -193 0
h -53 193 0
h -53 -194 0
h -54 194 0
h -54 -195 0
h -55 195 0
h -56 -197 0
h -57 197 0
h -57 -198 0
h -58 198 0
h -58 -199 0
h -59 199 0
h -59 -200 0
h -60 200 0
h -61 -202 0
h -62 202 0
h -62 -203 0
h -63 203 0
h -63 -204 0
h -64 204 0
h -64 -205 0
h -65 205 0
h -66 -207 0
h -67 207 0
h -67 -208 0
h -68 208 0
h -68 -209 0
h -69 209 0
h -69 -210 0
h -70 210 0
h -71 -212 0
h -72 212 0
h -72 -213 0
h -73 213 0
h -73 -214 0
h -74 214 0
h -74 -215 0
h -75 215 0
h -76 -217 0
h -77 217 0
h -77 -218 0
h -78 218 0
h -78 -219 0
h -79 219 0
h -79 -220 0
h -80 220 0
h -81 -222 0
h -82 222 0
h -82 -223 0
h -83 223 0
h -83 -224 0
h -84 224 0
h -84 -225 0
h -85 225 0
h -86 -227 0
h -87 227 0
h -87 -228 0
h -88 228 0
h -88 -229 0
h -89 229 0
h -89 -230 0
h -90 230 0
h -91 -232 0
h -92 232 0
h -92 -233 0
h -93 233 0
h -93 -234 0
h -94 234 0
h -94 -235 0
h -95 235 0
h -96 -237 0
h -97 237 0
h -97 -238 0
h -98 238 0
h -98 -239 0
h -99 239 0
h -99 -240 0
h -100 240 0
h -101 -242 0
h -102 242 0
h -102 -243 0
h -103 243 0
h -103 -244 0
h -104 244 0
h -104 -245 0
h -105 245 0
h -106 -247 0
h -107 247 0
h -107 -248 0
h -108 248 0
h -108 -249 0
h -109 249 0
h -109 -250 0
h -110 250 0
h -111 -252 0
h -112 252 0
h -112 -253 0
h -113 253 0
h -113 -254 0
h -114 254 0
h -114 -255 0
h -115 255 0
h -116 -257 0
h -117 257 0
h -117 -258 0
h -118 258 0
h -118 -259 0
h -119 259 0
h -119 -260 0
h -120 260 0
h -121 -262 0
h -122 262 0
h -122 -263 0
h -123 263 0
h -123 -264 0
h -124 264 0
h -124 -265 0
h -125 265 0
h -126 -267 0
h -127 267 0
h -127 -268 0
h -128 268 0
h -128 -269 0
h -129 269 0
h -129 -270 0
h -130 270 0
h -131 -272 0
h -132 272 0
h -132 -273 0
h -133 273 0
h -133 -274 0
h -134 274 0
h -134 -275 0
h -135 275 0
h -136 -277 0
h -137 277 0
h -137 -278 0
h -138 278 0
h -138 -279 0
h -139 279 0
h -139 -280 0
h -140 280 0
h -142 141 0
h -143 142 0
h -144 143 0
h -145 144 0
h -147 146 0
h -148 147 0
h -149 148 0
h -150 149 0
h -152 151 0
h -153 152 0
h -154 153 0
h -155 154 0
h -157 156 0
h -158 157 0
h -159 158 0
h -160 159 0
h -162 161 0
h -163 162 0
h -164 163 0
h -165 164 0
h -167 166 0
h -168 167 0
h -169 168 0
h -170 169 0
h -172 171 0
h -173 172 0
h -174 173 0
h -175 174 0
h -177 176 0
h -178 177 0
h -179 178 0
h -180 179 0
h -182 181 0
h -183 182 0
h -184 183 0
h -185 184 0
h -187 186 0
h -188 187 0
h -189 188 0
h -190 189 0
h -192 191 0
h -193 192 0
h -194 193 0
h -195 194 0
h -197 196 0
h -198 197 0
h -199 198 0
h -200 199 0
h -202 201 0
h -203 202 0
h -204 203 0
h -205 204 0
h -207 206 0
h -208 207 0
h -209 208 0
h -210 209 0
h -212 211 0
h -213 212 0
h -214 213 0
h -215 214 0
h -217 216 0
h -218 217 0
h -219 218 0
h -220 219 0
h -222 221 0
h -223 222 0
h -224 223 0
h -225 224 0
h -227 226 0
h -228 227 0
h -229 228 0
h -230 229 0
h -232 231 0
h -233 232 0
h -234 233 0
h -235 234 0
h -237 236 0
h -238 237 0
h -239 238 0
h -240 239 0
h -242 241 0
h -243 242 0
h -244 243 0
h -245 244 0
h -247 246 0
h -248 247 0
h -249 248 0
h -250 249 0
h -252 251 0
h -253 252 0
h -254 253 0
h -255 254 0
h -257 256 0
h -258 257 0
h -259 258 0
h -260 259 0
h -262 261 0
h -263 262 0
h -264 263 0
h -265 264 0
h -267 266 0
h -268 267 0
h -269 268 0
h -270 269 0
h -272 271 0
h -273 272 0
h -274 273 0
h -275 274 0
h -277 276 0
h -278 277 0
h -279 278 0
h -280 279 0
1 -1 0
1 -2 17 20 0
1 -3 18 0
1 -4 0
1 -5 0
1 -51 0
1 -52 26 29 0
1 -53 0
1 -54 26 0
1 -55 0
1 -56 66 0
1 -57 0
1 -58 0
1 -59 69 70 0
1 -60 0
1 -46 56 0
1 -47 58 60 0
1 -48 0
1 -49 0
1 -50 0
1 -21 0
1 -22 0
1 -23 40 0
1 -24 0
1 -25 36 38 0
1 -51 0
1 -52 62 0
1 -53 0
1 -54 64 65 0
1 -55 0
1 -131 0
1 -132 42 0
1 -133 42 43 0
1 -134 0
1 -135 0
1 -56 76 78 0
1 -57 79 0
1 -58 0
1 -59 0
1 -60 0
1 -41 0
1 -42 0
1 -43 111 113 0
1 -44 0
1 -45 112 0
1 -26 0
1 -27 0
1 -28 0
1 -29 15 0
1 -30 12 15 0
1 -51 0
1 -52 42 43 45 0
1 -53 0
1 -54 0
1 -55 0
1 -56 8 0
1 -57 0
1 -58 6 0
1 -59 0
1 -60 7 0
1 -111 0
1 -112 106 107 0
1 -113 0
1 -114 106 0
1 -115 0
1 -91 0
1 -92 48 0
1 -93 49 0
1 -94 46 0
1 -95 0
1 -91 81 0
1 -92 0
1 -93 82 84 0
1 -94 0
1 -95 0
1 -111 0
1 -112 0
1 -113 30 0
1 -114 0
1 -115 29 30 0
1 -76 34 0
1 -77 0
1 -78 0
1 -79 0
1 -80 32 34 0
1 -106 23 24 0
1 -107 0
1 -108 0
1 -109 25 0
1 -110 0
1 -26 88 89 0
1 -27 90 0
1 -28 0
1 -29 0
1 -30 0
1 -106 42 0
1 -107 0
1 -108 0
1 -109 44 45 0
1 -110 0
1 -121 0
1 -122 119 0
1 -123 120 0
1 -124 116 0
1 -125 0
1 -51 31 0
1 -52 34 35 0
1 -53 0
1 -54 0
1 -55 0
1 -136 96 0
1 -137 0
1 -138 99 0
1 -139 0
1 -140 98 0
1 -131 0
1 -132 129 0
1 -133 128 0
1 -134 130 0
1 -135 0
1 -36 0
1 -37 0
1 -38 0
1 -39 12 14 15 0
1 -40 0
1 -106 0
1 -107 0
1 -108 31 33 0
1 -109 34 0
1 -110 0
1 -86 0
1 -87 60 0
1 -88 0
1 -89 57 0
1 -90 58 0
1 -76 44 0
1 -77 43 0
1 -78 41 0
1 -79 0
1 -80 0
1 -61 0
1 -62 27 0
1 -63 0
1 -64 0
1 -65 28 30 0
1 -36 42 45 0
1 -37 0
1 -38 44 0
1 -39 0
1 -40 0
1 -101 6 7 0
1 -102 0
1 -103 7 0
1 -104 0
1 -105 0
1 -136 0
1 -137 0
1 -138 26 0
1 -139 0
1 -140 27 28 0
1 -16 31 0
1 -17 32 33 0
1 -18 0
1 -19 0
1 -20 0
1 -131 26 0
1 -132 0
1 -133 27 0
1 -134 0
1 -135 29 0
1 -91 0
1 -92 0
1 -93 0
1 -94 0
1 -95 86 87 88 0
1 -86 0
1 -87 22 0
1 -88 0
1 -89 21 25 0
1 -90 0
1 -116 26 0
1 -117 30 0
1 -118 0
1 -119 0
1 -120 29 0
1 -41 0
1 -42 118 120 0
1 -43 117 0
1 -44 0
1 -45 0
1 -11 0
1 -12 0
1 -13 0
1 -14 22 0
1 -15 21 25 0
1 -16 0
1 -17 0
1 -18 45 0
1 -19 0
1 -20 41 43 0
1 -41 127 0
1 -42 0
1 -43 0
1 -44 0
1 -45 126 130 0
1 -26 0
1 -27 109 110 0
1 -28 0
1 -29 107 0
1 -30 0
1 -41 32 0
1 -42 0
1 -43 33 35 0
1 -44 0
1 -45 0
1 -71 0
1 -72 0
1 -73 25 0
1 -74 0
1 -75 22 25 0
1 -131 9 0
1 -132 10 0
1 -133 7 0
1 -134 0
1 -135 0
1 -81 60 0
1 -82 57 0
1 -83 0
1 -84 56 0
1 -85 0
1 -51 0
1 -52 0
1 -53 2 3 0
1 -54 0
1 -55 2 0
1 -46 9 0
1 -47 10 0
1 -48 0
1 -49 0
1 -50 6 0
1 -51 47 49 0
1 -52 0
1 -53 49 0
1 -54 0
1 -55 0
1 -101 0
1 -102 0
1 -103 0
1 -104 98 0
1 -105 97 99 0
1 -31 6 0
1 -32 0
1 -33 8 0
1 -34 7 0
1 -35 0
1 -61 32 0
1 -62 31 33 0
1 -63 0
1 -64 0
1 -65 0
1 -46 2 5 0
1 -47 0
1 -48 0
1 -49 2 0
1 -50 0
1 -71 0
1 -72 0
1 -73 35 0
1 -74 0
1 -75 31 33 0
1 -101 0
1 -102 31 0
1 -103 0
1 -104 32 0
1 -105 35 0
1 -66 0
1 -67 27 0
1 -68 0
1 -69 30 0
1 -70 28 0
1 -126 0
1 -127 103 0
1 -128 102 103 0
1 -129 0
1 -130 0
1 -96 0
1 -97 0
1 -98 0
1 -99 6 9 0
1 -100 9 0
1 -121 99 0
1 -122 98 100 0
1 -123 0
1 -124 0
1 -125 0
1 -31 22 0
1 -32 0
1 -33 23 0
1 -34 0
1 -35 24 0
1 -106 4 0
1 -107 0
1 -108 0
1 -109 0
1 -110 1 5 0
1 -106 104 105 0
1 -107 0
1 -108 0
1 -109 104 0
1 -110 0
1 -26 1 0
1 -27 0
1 -28 0
1 -29 3 4 0
1 -30 0
1 -11 103 0
1 -12 0
1 -13 0
1 -14 0
1 -15 102 105 0
1 -76 0
1 -77 22 25 0
1 -78 0
1 -79 21 0
1 -80 0
1 -56 51 0
1 -57 0
1 -58 54 55 0
1 -59 0
1 -60 0
1 -56 91 92 0
1 -57 93 0
1 -58 0
1 -59 0
1 -60 0
1 -51 79 80 0
1 -52 0
1 -53 76 0
1 -54 0
1 -55 0
1 -11 106 108 0
1 -12 110 0
1 -13 0
1 -14 0
1 -15 0
1 -11 0
1 -12 0
1 -13 4 5 0
1 -14 0
1 -15 4 0
1 -21 0
1 -22 0
1 -23 102 103 0
1 -24 0
1 -25 105 0
1 -36 20 0
1 -37 0
1 -38 16 0
1 -39 0
1 -40 18 0
1 -1 0
1 -2 0
1 -3 57 58 59 0
1 -4 0
1 -5 0
1 -1 0
1 -2 0
1 -3 0
1 -4 103 105 0
1 -5 102 0
1 -76 0
1 -77 0
1 -78 28 29 0
1 -79 0
1 -80 26 0
1 -91 30 0
1 -92 28 29 0
1 -93 0
1 -94 0
1 -95 0
1 -26 83 84 0
1 -27 0
1 -28 82 0
1 -29 0
1 -30 0
1 -41 0
1 -42 28 0
1 -43 27 0
1 -44 0
1 -45 29 0
1 -21 122 0
1 -22 0
1 -23 0
1 -24 0
1 -25 123 124 0
1 -76 48 50 0
1 -77 0
1 -78 0
1 -79 0
1 -80 50 0
1 -81 33 35 0
1 -82 31 0
1 -83 0
1 -84 0
1 -85 0
1 -31 29 0
1 -32 26 0
1 -33 0
1 -34 30 0
1 -35 0
1 -61 0
1 -62 0
1 -63 57 59 0
1 -64 0
1 -65 56 0
1 -81 0
1 -82 44 0
1 -83 0
1 -84 41 0
1 -85 45 0
1 -71 0
1 -72 51 0
1 -73 0
1 -74 52 53 0
1 -75 0
1 -136 7 0
1 -137 0
1 -138 0
1 -139 8 0
1 -140 10 0
1 -31 3 0
1 -32 1 0
1 -33 0
1 -34 5 0
1 -35 0
1 -101 41 44 0
1 -102 0
1 -103 0
1 -104 44 0
1 -105 0
1 -46 0
1 -47 0
1 -48 32 33 0
1 -49 32 0
1 -50 0
1 -6 45 0
1 -7 0
1 -8 0
1 -9 41 42 0
1 -10 0
1 -136 41 44 0
1 -137 0
1 -138 0
1 -139 44 0
1 -140 0
1 -81 21 0
1 -82 0
1 -83 0
1 -84 0
1 -85 22 25 0
1 -21 0
1 -22 0
1 -23 58 60 0
1 -24 56 0
1 -25 0
1 -126 0
1 -127 0
1 -128 24 25 0
1 -129 25 0
1 -130 0
1 -11 0
1 -12 0
1 -13 42 0
1 -14 0
1 -15 43 45 0
1 -61 48 50 0
1 -62 50 0
1 -63 0
1 -64 0
1 -65 0
1 -31 0
1 -32 0
1 -33 120 0
1 -34 117 118 0
1 -35 0
1 -71 0
1 -72 46 49 0
1 -73 50 0
1 -74 0
1 -75 0
1 -131 31 0
1 -132 34 0
1 -133 0
1 -134 0
1 -135 33 0
1 -31 0
1 -32 69 0
1 -33 66 67 0
1 -34 0
1 -35 0
1 -136 0
1 -137 134 0
1 -138 135 0
1 -139 0
1 -140 133 0
1 -41 65 0
1 -42 0
1 -43 0
1 -44 63 64 0
1 -45 0
1 -121 0
1 -122 0
1 -123 28 29 0
1 -124 28 0
1 -125 0
1 -111 0
1 -112 7 0
1 -113 0
1 -114 0
1 -115 8 10 0
1 -96 30 0
1 -97 0
1 -98 28 0
1 -99 0
1 -100 27 0
1 -36 0
1 -37 7 9 0
1 -38 10 0
1 -39 0
1 -40 0
1 -136 0
1 -137 0
1 -138 23 25 0
1 -139 0
1 -140 21 0
1 -31 14 0
1 -32 0
1 -33 0
1 -34 11 0
1 -35 12 0
1 -71 0
1 -72 0
1 -73 42 0
1 -74 42 44 0
1 -75 0
1 -96 2 0
1 -97 0
1 -98 3 4 0
1 -99 0
1 -100 0
1 -11 9 0
1 -12 0
1 -13 6 8 0
1 -14 0
1 -15 0
1 -36 0
1 -37 34 35 0
1 -38 0
1 -39 34 0
1 -40 0
1 -46 0
1 -47 43 0
1 -48 0
1 -49 0
1 -50 41 44 0
1 -96 0
1 -97 0
1 -98 112 115 0
1 -99 0
1 -100 114 0
1 -71 56 0
1 -72 60 0
1 -73 57 0
1 -74 0
1 -75 0
1 -41 3 4 0
1 -42 2 0
1 -43 0
1 -44 0
1 -45 0
1 -126 0
1 -127 31 0
1 -128 34 0
1 -129 33 0
1 -130 0
1 -116 113 0
1 -117 111 112 0
1 -118 0
1 -119 0
1 -120 0
1 -71 70 0
1 -72 0
1 -73 0
1 -74 66 0
1 -75 68 0
1 -61 1 0
1 -62 0
1 -63 4 0
1 -64 2 0
1 -65 0
1 -136 103 104 0
1 -137 0
1 -138 101 0
1 -139 0
1 -140 0
1 -81 48 0
1 -82 0
1 -83 49 0
1 -84 0
1 -85 50 0
1 -46 0
1 -47 0
1 -48 20 0
1 -49 0
1 -50 16 18 0
1 -6 0
1 -7 121 125 0
1 -8 0
1 -9 122 0
1 -10 0
1 -136 31 35 0
1 -137 0
1 -138 33 0
1 -139 0
1 -140 0
1 -96 118 0
1 -97 0
1 -98 0
1 -99 117 120 0
1 -100 0
1 -46 29 0
1 -47 26 0
1 -48 0
1 -49 30 0
1 -50 0
1 -6 4 0
1 -7 0
1 -8 5 0
1 -9 0
1 -10 3 0
1 -36 26 0
1 -37 0
1 -38 0
1 -39 30 0
1 -40 27 0
1 -71 0
1 -72 0
1 -73 0
1 -74 76 79 0
1 -75 78 0
1 -56 0
1 -57 0
1 -58 32 0
1 -59 31 0
1 -60 33 0
1 -51 0
1 -52 6 9 0
1 -53 0
1 -54 0
1 -55 9 0
1 -46 0
1 -47 0
1 -48 0
1 -49 39 40 0
1 -50 40 0
1 -31 96 100 0
1 -32 99 0
1 -33 0
1 -34 0
1 -35 0
1 -16 0
1 -17 11 0
1 -18 0
1 -19 12 0
1 -20 15 0
1 -36 0
1 -37 0
1 -38 1 0
1 -39 0
1 -40 2 3 0
1 -66 0
1 -67 25 0
1 -68 0
1 -69 22 25 0
1 -70 0
1 -21 19 20 0
1 -22 0
1 -23 0
1 -24 19 0
1 -25 0
1 -126 8 0
1 -127 10 0
1 -128 7 0
1 -129 0
1 -130 0
1 -6 0
1 -7 0
1 -8 107 109 0
1 -9 106 0
1 -10 0
1 -136 126 0
1 -137 0
1 -138 0
1 -139 0
1 -140 127 129 0
1 -16 10 0
1 -17 0
1 -18 7 9 0
1 -19 0
1 -20 0
1 -16 0
1 -17 27 0
1 -18 26 29 0
1 -19 0
1 -20 0
1 -51 0
1 -52 23 0
1 -53 0
1 -54 21 22 0
1 -55 0
1 -26 0
1 -27 21 0
1 -28 0
1 -29 23 0
1 -30 24 0
1 -96 0
1 -97 0
1 -98 42 45 0
1 -99 0
1 -100 45 0
1 -131 101 0
1 -132 0
1 -133 0
1 -134 101 103 0
1 -135 0
1 -46 22 0
1 -47 0
1 -48 25 0
1 -49 0
1 -50 24 0
1 -91 0
1 -92 51 0
1 -93 0
1 -94 0
1 -95 54 55 0
1 -121 0
1 -122 114 0
1 -123 111 0
1 -124 0
1 -125 113 0
1 -21 0
1 -22 0
1 -23 97 0
1 -24 0
1 -25 99 100 0
1 -121 0
1 -122 0
1 -123 42 45 0
1 -124 0
1 -125 43 0
1 -86 31 34 0
1 -87 0
1 -88 0
1 -89 0
1 -90 33 0
1 -46 88 0
1 -47 0
1 -48 0
1 -49 86 90 0
1 -50 0
1 -126 27 0
1 -127 0
1 -128 0
1 -129 29 0
1 -130 30 0
1 -21 0
1 -22 0
1 -23 61 62 0
1 -24 64 0
1 -25 0
1 -121 0
1 -122 110 0
1 -123 0
1 -124 107 0
1 -125 106 0
1 -66 44 0
1 -67 0
1 -68 45 0
1 -69 41 0
1 -70 0
1 -81 87 88 0
1 -82 0
1 -83 0
1 -84 89 0
1 -85 0
1 -66 50 0
1 -67 0
1 -68 46 0
1 -69 0
1 -70 48 0
1 -86 0
1 -87 44 0
1 -88 43 0
1 -89 42 0
1 -90 0
1 -91 42 0
1 -92 41 44 0
1 -93 0
1 -94 0
1 -95 0
1 -21 117 119 0
1 -22 0
1 -23 0
1 -24 116 0
1 -25 0
1 -56 29 0
1 -57 28 29 0
1 -58 0
1 -59 0
1 -60 0
1 -76 66 69 0
1 -77 0
1 -78 0
1 -79 0
1 -80 69 0
1 -116 0
1 -117 9 0
1 -118 7 0
1 -119 0
1 -120 8 0
1 -66 0
1 -67 51 53 0
1 -68 53 0
1 -69 0
1 -70 0
1 -51 0
1 -52 0
1 -53 0
1 -54 84 85 0
1 -55 81 0
1 -26 0
1 -27 6 0
1 -28 7 0
1 -29 0
1 -30 8 0
1 -131 0
1 -132 21 0
1 -133 24 25 0
1 -134 0
1 -135 0
1 -111 0
1 -112 21 24 0
1 -113 0
1 -114 25 0
1 -115 0
1 -21 91 92 0
1 -22 0
1 -23 0
1 -24 0
1 -25 93 0
1 -101 27 30 0
1 -102 0
1 -103 0
1 -104 0
1 -105 29 0
1 -96 134 135 0
1 -97 0
1 -98 133 0
1 -99 0
1 -100 0
1 -46 0
1 -47 0
1 -48 0
1 -49 11 13 0
1 -50 13 0
1 -41 0
1 -42 0
1 -43 0
1 -44 58 60 0
1 -45 57 0
1 -21 0
1 -22 1 4 0
1 -23 0
1 -24 0
1 -25 3 0
1 -26 0
1 -27 72 75 0
1 -28 0
1 -29 0
1 -30 74 0
1 -61 0
1 -62 9 0
1 -63 0
1 -64 7 0
1 -65 8 0
1 -126 0
1 -127 0
1 -128 98 99 0
1 -129 98 0
1 -130 0
1 -96 13 15 0
1 -97 0
1 -98 0
1 -99 15 0
1 -100 0
1 -121 32 34 0
1 -122 0
1 -123 0
1 -124 32 0
1 -125 0
1 -116 107 110 0
1 -117 108 0
1 -118 0
1 -119 0
1 -120 0
1 -41 0
1 -42 23 0
1 -43 24 0
1 -44 25 0
1 -45 0
1 -96 110 0
1 -97 0
1 -98 0
1 -99 106 108 0
1 -100 0
1 -21 0
1 -22 8 0
1 -23 0
1 -24 0
1 -25 7 9 0
1 -111 35 0
1 -112 0
1 -113 0
1 -114 32 0
1 -115 33 0
1 -86 55 0
1 -87 52 0
1 -88 0
1 -89 0
1 -90 53 0
1 -31 0
1 -32 92 94 0
1 -33 0
1 -34 0
1 -35 95 0
